Maximize
 obj: 151349 x0 + 218766 x1 + 209956 x2 + 136972 x3 + 23485 x4 + 48378 x5 + 84527 x6 + 120021 x7 + 94973 x8 + 51855 x9 + 241193 x10 + 248288 x11 + 153107 x12 + 143022 x13 + 264594 x14 + 177310 x15 + 168843 x16 + 96531 x17 + 59771 x18 + 144493 x19 + 188842 x20 + 117933 x21 + 71512 x22 + 165991 x23 + 246375 x24 + 219887 x25 + 210177 x26 + 166970 x27 
Subject To
 c1:  x12  <= 1
 c2:  x26  <= 1
 c3:  x23 +  x26  <= 1
 c4:  x3  <= 1
 c5:  x0 +  x1 +  x2 +  x3  <= 1
 c6:  x6 +  x7 +  x8  <= 1
 c7:  x10 +  x11 +  x12 +  x13  <= 1
 c8:  x14 +  x15 +  x16  <= 1
 c9:  x19 +  x20 +  x21 +  x22  <= 1
 c10:  x23 +  x24 +  x25 +  x26 +  x27  <= 1
 c11:  x19 +  x21  <= 1
 c12:  x21  <= 1
 c13:  x16  <= 1
 c14:  x22 +  x26 +  x27  <= 1
 c15:  x11  <= 1
 c16:  x2 +  x7 +  x19 +  x22  <= 1
 c17:  x0 +  x1 +  x10 +  x13  <= 1
 c18:  x9  <= 1
 c19:  x14 +  x15  <= 1
 c20:  x0 +  x3  <= 1
 c21:  x8 +  x23  <= 1
 c22:  x14 +  x15 +  x24  <= 1
 c23:  x3 +  x13 +  x16 +  x23 +  x24 +  x27  <= 1
 c24:  x18  <= 1
 c25:  x1 +  x2  <= 1
 c26:  x6 +  x7 +  x22  <= 1
 c27:  x17  <= 1
 c28:  x6 +  x8 +  x12 +  x15 +  x19 +  x20  <= 1
 c29:  x5 +  x26  <= 1
 c30:  x1 +  x10 +  x12 +  x21 +  x24 +  x27  <= 1
 c31:  x1 +  x2 +  x14 +  x16 +  x24  <= 1
 c32:  x23 +  x24 +  x25  <= 1
 c33:  x3 +  x6 +  x16 +  x20  <= 1
 c34:  x1  <= 1
 c35:  x0 +  x3 +  x25  <= 1
 c36:  x25  <= 1
 c37:  x8  <= 1
 c38:  x7  <= 1
 c39:  x20 +  x25  <= 1
 c40:  x2 +  x14  <= 1
 c41:  x4 +  x23 +  x27  <= 1
 c42:  x11 +  x25 +  x26  <= 1
 c43:  x0 +  x2  <= 1
 c44:  x15  <= 1
 c45:  x0  <= 1
 c46:  x13 +  x27  <= 1
 c47:  x10 +  x11  <= 1
Bounds
 0 <= x0 <= 1
 0 <= x1 <= 1
 0 <= x2 <= 1
 0 <= x3 <= 1
 0 <= x4 <= 1
 0 <= x5 <= 1
 0 <= x6 <= 1
 0 <= x7 <= 1
 0 <= x8 <= 1
 0 <= x9 <= 1
 0 <= x10 <= 1
 0 <= x11 <= 1
 0 <= x12 <= 1
 0 <= x13 <= 1
 0 <= x14 <= 1
 0 <= x15 <= 1
 0 <= x16 <= 1
 0 <= x17 <= 1
 0 <= x18 <= 1
 0 <= x19 <= 1
 0 <= x20 <= 1
 0 <= x21 <= 1
 0 <= x22 <= 1
 0 <= x23 <= 1
 0 <= x24 <= 1
 0 <= x25 <= 1
 0 <= x26 <= 1
 0 <= x27 <= 1
End